166	32	4	98	
10	10	10	10

0	0	0	0	0	0	2	1	10
1	1	0	1	1	3	1	2
2	7	1	0	4	8	3	5	4	3
3	8	0	4	4	8	4	30	11	9	7
4	0	5	1	3	8	2	11	6
5	4	8	5	0	9	2	8	7
6	5	5	0	5	5	2	9	7
7	4	2	4	0	6	2	16	12
8	2	4	3	0	4	1	9
9	4	4	3	0	4	2	15	14
10	1	5	4	0	6	2	15	14
11	2	2	0	4	5	2	23	14
12	0	3	1	7	3	1	13
13	1	3	4	0	6	2	29	15
14	2	5	5	0	1	1	16
15	5	3	0	2	3	2	23	17
16	4	0	4	3	2	2	29	17
17	5	0	7	6	4	2	21	18
18	3	5	6	0	9	2	28	19
19	4	0	1	3	1	2	27	20
20	3	5	0	6	3	2	26	22
21	5	0	4	2	7	2	26	25
22	5	4	0	3	9	1	24
23	0	5	10	3	8	1	24
24	4	0	2	2	8	1	25
25	0	4	4	2	5	1	31
26	4	2	0	6	4	1	31
27	6	0	4	7	7	1	31
28	5	3	4	0	9	1	31
29	6	0	7	4	10	1	31
30	4	6	0	7	1	1	31
31	0	0	0	0	0	0
